40	100	100	100
94	55	100
88	60	100
48	54	100
70	79	100
82	57	100
72	98	100
94	14	100
96	79	100
37	59	100
76	31	100
5	31	100
75	97	100
68	15	100
59	74	100
16	20	100
56	40	100
95	27	100
99	29	100
49	58	100
68	12	100
48	24	100
15	59	100
96	20	100
78	30	100
32	2	100
65	36	100
23	55	100
41	62	100
16	28	100
24	9	100
24	57	100
12	14	100
70	45	100
72	13	100
15	71	100
9	20	100
11	66	100
99	35	100
48	87	100
97	51	100
